NAME : result_PSO.tour
COMMENT : Length = 100
COMMENT : Found by PSO
TYPE : TOUR
DIMENSION : 100
TOUR_SECTION
22
32
29
38
24
35
37
96
87
85
84
99
89
86
100
92
91
88
97
93
94
98
90
95
1
6
17
12
9
19
10
4
7
8
11
5
18
13
14
3
15
2
20
16
21
46
40
51
41
44
49
50
45
42
48
47
39
43
75
79
73
71
80
77
67
82
72
76
70
78
83
74
81
69
68
60
63
55
56
66
58
54
52
57
53
64
61
62
59
65
28
26
36
27
25
30
31
34
23
33
-1
EOF
